;symbolic execution tree
(push)
(assert (le x4 java.lang.String))
(check-sat)
(push)
(assert (le x6 weka.core.Instance))
(check-sat)
(pop)
(push)
(assert (not (le x6 weka.core.Instance)))
(check-sat)
(push)
(assert (le x3 weka.core.Instances))
(check-sat)
(push)
(assert (le x15 weka.core.Instance))
(check-sat)
(pop)
(push)
(assert (not (le x15 weka.core.Instance)))
(check-sat)
(push)
(assert (le x3 weka.core.Instances))
(check-sat)
(pop)
(push)
(assert (not (le x3 weka.core.Instances)))
(check-sat)
(pop)
(pop)
(pop)
(push)
(assert (not (le x3 weka.core.Instances)))
(check-sat)
(pop)
(pop)
(pop)
(push)
(assert (not (le x4 java.lang.String)))
(check-sat)
(push)
(assert (le x11 weka.core.Instances))
(check-sat)
(push)
(assert (le x12 java.util.Hashtable))
(check-sat)
(pop)
(push)
(assert (not (le x12 java.util.Hashtable)))
(check-sat)
(pop)
(push)
(assert (le x9 java.lang.String))
(check-sat)
(pop)
(push)
(assert (not (le x9 java.lang.String)))
(check-sat)
(pop)
(push)
(assert (le x13 weka.core.Instance))
(check-sat)
(pop)
(push)
(assert (not (le x13 weka.core.Instance)))
(check-sat)
(pop)
(pop)
(push)
(assert (not (le x11 weka.core.Instances)))
(check-sat)
(push)
(assert (le x1 weka.core.Instances))
(check-sat)
(pop)
(push)
(assert (not (le x1 weka.core.Instances)))
(check-sat)
(pop)
(push)
(assert (le x9 weka.core.Instances))
(check-sat)
(pop)
(push)
(assert (not (le x9 weka.core.Instances)))
(check-sat)
(pop)
(push)
(assert (le x14 java.util.Vector))
(check-sat)
(push)
(assert (le x11 weka.core.Instances))
(check-sat)
(pop)
(push)
(assert (not (le x11 weka.core.Instances)))
(check-sat)
(pop)
(pop)
(push)
(assert (not (le x14 java.util.Vector)))
(check-sat)
(pop)
(pop)
(push)
(assert (le x15 weka.core.Instances))
(check-sat)
(push)
(assert (le x7 weka.core.Instances))
(check-sat)
(pop)
(push)
(assert (not (le x7 weka.core.Instances)))
(check-sat)
(push)
(assert (le x14 weka.core.Instances))
(check-sat)
(pop)
(push)
(assert (not (le x14 weka.core.Instances)))
(check-sat)
(pop)
(pop)
(pop)
(push)
(assert (not (le x15 weka.core.Instances)))
(check-sat)
(pop)
(push)
(assert (le x15 weka.core.FastVector))
(check-sat)
(push)
(assert (le x6 weka.core.Range))
(check-sat)
(pop)
(push)
(assert (not (le x6 weka.core.Range)))
(check-sat)
(pop)
(push)
(assert (le x11 weka.core.Instances))
(check-sat)
(pop)
(push)
(assert (not (le x11 weka.core.Instances)))
(check-sat)
(push)
(assert (le x8 weka.core.Instance))
(check-sat)
(pop)
(push)
(assert (not (le x8 weka.core.Instance)))
(check-sat)
(pop)
(pop)
(push)
(assert (le x12 java.lang.String))
(check-sat)
(push)
(assert (le x2 weka.core.Instances))
(check-sat)
(pop)
(push)
(assert (not (le x2 weka.core.Instances)))
(check-sat)
(push)
(assert (le x0 weka.core.FastVector))
(check-sat)
(pop)
(push)
(assert (not (le x0 weka.core.FastVector)))
(check-sat)
(pop)
(pop)
(push)
(assert (le x0 weka.core.Instances))
(check-sat)
(push)
(assert (le x6 weka.core.Instances))
(check-sat)
(pop)
(push)
(assert (not (le x6 weka.core.Instances)))
(check-sat)
(pop)
(pop)
(push)
(assert (not (le x0 weka.core.Instances)))
(check-sat)
(pop)
(pop)
(push)
(assert (not (le x12 java.lang.String)))
(check-sat)
(push)
(assert (le x4 java.lang.String))
(check-sat)
(pop)
(push)
(assert (not (le x4 java.lang.String)))
(check-sat)
(pop)
(push)
(assert (le x3 java.util.Vector))
(check-sat)
(push)
(assert (le x6 weka.core.Instance))
(check-sat)
(pop)
(push)
(assert (not (le x6 weka.core.Instance)))
(check-sat)
(pop)
(push)
(assert (le x15 weka.core.FastVector))
(check-sat)
(pop)
(push)
(assert (not (le x15 weka.core.FastVector)))
(check-sat)
(pop)
(pop)
(push)
(assert (not (le x3 java.util.Vector)))
(check-sat)
(pop)
(push)
(assert (le x6 weka.core.FastVector))
(check-sat)
(pop)
(push)
(assert (not (le x6 weka.core.FastVector)))
(check-sat)
(pop)
(pop)
(push)
(assert (le x6 weka.core.Capabilities_currencysign_Capability))
(check-sat)
(pop)
(push)
(assert (not (le x6 weka.core.Capabilities_currencysign_Capability)))
(check-sat)
(pop)
(pop)
(push)
(assert (not (le x15 weka.core.FastVector)))
(check-sat)
(pop)
(push)
(assert (le x3 weka.core.Capabilities_currencysign_Capability))
(check-sat)
(push)
(assert (le x0 weka.core.AttributeLocator))
(check-sat)
(pop)
(push)
(assert (not (le x0 weka.core.AttributeLocator)))
(check-sat)
(pop)
(push)
(assert (le x0 weka.core.Instance))
(check-sat)
(pop)
(push)
(assert (not (le x0 weka.core.Instance)))
(check-sat)
(pop)
(push)
(assert (le x7 weka.core.Queue_currencysign_QueueNode))
(check-sat)
(push)
(assert (le x12 weka.core.Instances))
(check-sat)
(pop)
(push)
(assert (not (le x12 weka.core.Instances)))
(check-sat)
(pop)
(push)
(assert (le x10 java.util.Vector))
(check-sat)
(pop)
(push)
(assert (not (le x10 java.util.Vector)))
(check-sat)
(push)
(assert (le x8 java.io.ByteArrayOutputStream))
(check-sat)
(pop)
(push)
(assert (not (le x8 java.io.ByteArrayOutputStream)))
(check-sat)
(pop)
(push)
(assert (le x4 java.lang.String))
(check-sat)
(pop)
(push)
(assert (not (le x4 java.lang.String)))
(check-sat)
(pop)
(pop)
(push)
(assert (le x0 java.lang.StringBuffer))
(check-sat)
(pop)
(push)
(assert (not (le x0 java.lang.StringBuffer)))
(check-sat)
(pop)
(push)
(assert (le x4 java.lang.String))
(check-sat)
(pop)
(push)
(assert (not (le x4 java.lang.String)))
(check-sat)
(pop)
(push)
(assert (le x12 weka.core.FastVector))
(check-sat)
(push)
(assert (le x9 java.lang.String))
(check-sat)
(pop)
(push)
(assert (not (le x9 java.lang.String)))
(check-sat)
(pop)
(pop)
(push)
(assert (not (le x12 weka.core.FastVector)))
(check-sat)
(pop)
(pop)
(push)
(assert (not (le x7 weka.core.Queue_currencysign_QueueNode)))
(check-sat)
(push)
(assert (le x12 weka.core.Instance))
(check-sat)
(push)
(assert (le x4 java.lang.String))
(check-sat)
(pop)
(push)
(assert (not (le x4 java.lang.String)))
(check-sat)
(pop)
(pop)
(push)
(assert (not (le x12 weka.core.Instance)))
(check-sat)
(pop)
(push)
(assert (le x14 java.lang.String))
(check-sat)
(pop)
(push)
(assert (not (le x14 java.lang.String)))
(check-sat)
(pop)
(pop)
(pop)
(push)
(assert (not (le x3 weka.core.Capabilities_currencysign_Capability)))
(check-sat)
(pop)
(push)
(assert (le x5 java.lang.String))
(check-sat)
(push)
(assert (le x6 weka.core.Instance))
(check-sat)
(push)
(assert (le x1 java.lang.Object))
(check-sat)
(pop)
(push)
(assert (not (le x1 java.lang.Object)))
(check-sat)
(push)
(assert (le x0 java.util.Vector))
(check-sat)
(pop)
(push)
(assert (not (le x0 java.util.Vector)))
(check-sat)
(pop)
(pop)
(push)
(assert (le x13 weka.classifiers.trees.m5.RuleNode))
(check-sat)
(push)
(assert (le x10 weka.core.Instance))
(check-sat)
(pop)
(push)
(assert (not (le x10 weka.core.Instance)))
(check-sat)
(pop)
(pop)
(push)
(assert (not (le x13 weka.classifiers.trees.m5.RuleNode)))
(check-sat)
(pop)
(push)
(assert (le x5 java.lang.String))
(check-sat)
(pop)
(push)
(assert (not (le x5 java.lang.String)))
(check-sat)
(pop)
(push)
(assert (le x12 java.lang.Boolean))
(check-sat)
(push)
(assert (le x11 weka.core.FastVector))
(check-sat)
(pop)
(push)
(assert (not (le x11 weka.core.FastVector)))
(check-sat)
(pop)
(pop)
(push)
(assert (not (le x12 java.lang.Boolean)))
(check-sat)
(pop)
(pop)
(push)
(assert (not (le x6 weka.core.Instance)))
(check-sat)
(pop)
(push)
(assert (le x10 weka.core.ProtectedProperties))
(check-sat)
(pop)
(push)
(assert (not (le x10 weka.core.ProtectedProperties)))
(check-sat)
(pop)
(push)
(assert (le x12 weka.core.Instance))
(check-sat)
(pop)
(push)
(assert (not (le x12 weka.core.Instance)))
(check-sat)
(pop)
(pop)
(push)
(assert (not (le x5 java.lang.String)))
(check-sat)
(push)
(assert (le x0 weka.core.FastVector))
(check-sat)
(pop)
(push)
(assert (not (le x0 weka.core.FastVector)))
(check-sat)
(pop)
(push)
(assert (le x3 java.lang.String))
(check-sat)
(pop)
(push)
(assert (not (le x3 java.lang.String)))
(check-sat)
(push)
(assert (le x0 weka.core.Instances))
(check-sat)
(push)
(assert (le x5 java.lang.String))
(check-sat)
(pop)
(push)
(assert (not (le x5 java.lang.String)))
(check-sat)
(pop)
(pop)
(push)
(assert (not (le x0 weka.core.Instances)))
(check-sat)
(pop)
(push)
(assert (le x4 java.lang.String))
(check-sat)
(pop)
(push)
(assert (not (le x4 java.lang.String)))
(check-sat)
(pop)
(pop)
(push)
(assert (le x14 java.lang.String))
(check-sat)
(pop)
(push)
(assert (not (le x14 java.lang.String)))
(check-sat)
(pop)
(push)
(assert (le x8 weka.core.Instances))
(check-sat)
(push)
(assert (le x9 weka.core.matrix.Matrix))
(check-sat)
(pop)
(push)
(assert (not (le x9 weka.core.matrix.Matrix)))
(check-sat)
(push)
(assert (le x4 java.lang.String))
(check-sat)
(pop)
(push)
(assert (not (le x4 java.lang.String)))
(check-sat)
(pop)
(pop)
(pop)
(push)
(assert (not (le x8 weka.core.Instances)))
(check-sat)
(pop)
(push)
(assert (le x11 weka.core.Instance))
(check-sat)
(pop)
(push)
(assert (not (le x11 weka.core.Instance)))
(check-sat)
(push)
(assert (le x9 java.util.Vector))
(check-sat)
(pop)
(push)
(assert (not (le x9 java.util.Vector)))
(check-sat)
(pop)
(pop)
(pop)
(push)
(assert (le x12 java.lang.String))
(check-sat)
(push)
(assert (le x15 weka.core.Instance))
(check-sat)
(push)
(assert (le x9 java.lang.String))
(check-sat)
(pop)
(push)
(assert (not (le x9 java.lang.String)))
(check-sat)
(pop)
(pop)
(push)
(assert (not (le x15 weka.core.Instance)))
(check-sat)
(push)
(assert (le x5 weka.core.Instance))
(check-sat)
(push)
(assert (le x1 java.lang.StringBuilder))
(check-sat)
(pop)
(push)
(assert (not (le x1 java.lang.StringBuilder)))
(check-sat)
(pop)
(pop)
(push)
(assert (not (le x5 weka.core.Instance)))
(check-sat)
(pop)
(pop)
(push)
(assert (le x8 java.lang.Object))
(check-sat)
(push)
(assert (le x15 java.lang.String))
(check-sat)
(pop)
(push)
(assert (not (le x15 java.lang.String)))
(check-sat)
(pop)
(push)
(assert (le x13 weka.core.Instance))
(check-sat)
(pop)
(push)
(assert (not (le x13 weka.core.Instance)))
(check-sat)
(push)
(assert (le x7 weka.core.AttributeLocator))
(check-sat)
(pop)
(push)
(assert (not (le x7 weka.core.AttributeLocator)))
(check-sat)
(pop)
(pop)
(push)
(assert (le x10 java.io.ObjectInputStream))
(check-sat)
(push)
(assert (le x2 java.lang.String))
(check-sat)
(pop)
(push)
(assert (not (le x2 java.lang.String)))
(check-sat)
(pop)
(pop)
(push)
(assert (not (le x10 java.io.ObjectInputStream)))
(check-sat)
(pop)
(push)
(assert (le x7 weka.core.Instances))
(check-sat)
(pop)
(push)
(assert (not (le x7 weka.core.Instances)))
(check-sat)
(push)
(assert (le x4 java.lang.String))
(check-sat)
(pop)
(push)
(assert (not (le x4 java.lang.String)))
(check-sat)
(pop)
(pop)
(pop)
(push)
(assert (not (le x8 java.lang.Object)))
(check-sat)
(push)
(assert (le x1 java.util.Vector))
(check-sat)
(pop)
(push)
(assert (not (le x1 java.util.Vector)))
(check-sat)
(pop)
(push)
(assert (le x12 java.lang.String))
(check-sat)
(pop)
(push)
(assert (not (le x12 java.lang.String)))
(check-sat)
(pop)
(push)
(assert (le x8 weka.core.Instance))
(check-sat)
(pop)
(push)
(assert (not (le x8 weka.core.Instance)))
(check-sat)
(pop)
(pop)
(push)
(assert (le x10 weka.core.AttributeLocator))
(check-sat)
(push)
(assert (le x11 weka.core.AttributeLocator))
(check-sat)
(pop)
(push)
(assert (not (le x11 weka.core.AttributeLocator)))
(check-sat)
(pop)
(push)
(assert (le x0 java.lang.String))
(check-sat)
(pop)
(push)
(assert (not (le x0 java.lang.String)))
(check-sat)
(push)
(assert (le x2 weka.core.Instance))
(check-sat)
(pop)
(push)
(assert (not (le x2 weka.core.Instance)))
(check-sat)
(pop)
(pop)
(pop)
(push)
(assert (not (le x10 weka.core.AttributeLocator)))
(check-sat)
(pop)
(pop)
(push)
(assert (not (le x12 java.lang.String)))
(check-sat)
(pop)
(pop)
